************************************************************************
file with basedata            : c1552_.bas
initial value random generator: 342357604
************************************************************************
projects                      :  1
jobs (incl. supersource/sink ):  18
horizon                       :  123
RESOURCES
  - renewable                 :  2   R
  - nonrenewable              :  2   N
  - doubly constrained        :  0   D
************************************************************************
PROJECT INFORMATION:
pronr.  #jobs rel.date duedate tardcost  MPM-Time
    1     16      0       22       10       22
************************************************************************
PRECEDENCE RELATIONS:
jobnr.    #modes  #successors   successors
   1        1          3           2   3   4
   2        3          1           5
   3        3          1          11
   4        3          3           7   9  12
   5        3          3           6  15  16
   6        3          1           8
   7        3          3          10  13  16
   8        3          1          10
   9        3          1          14
  10        3          1          17
  11        3          1          17
  12        3          3          13  15  16
  13        3          1          17
  14        3          1          15
  15        3          1          18
  16        3          1          18
  17        3          1          18
  18        1          0        
************************************************************************
REQUESTS/DURATIONS:
jobnr. mode duration  R 1  R 2  N 1  N 2
------------------------------------------------------------------------
  1      1     0       0    0    0    0
  2      1     4       7    0    8   10
         2    10       5    0    7    2
         3    10       0   10    8    6
  3      1     7       2    0    8   10
         2    10       0    3    6    4
         3    10       2    0    6    4
  4      1     1       0    9    7    6
         2     1       4    0    8    5
         3     6       0    9    6    5
  5      1     3       7    0    7    4
         2     3       0    3    7    4
         3    10       5    0    4    2
  6      1     1       0    7    8    6
         2     3       8    0    6    5
         3     8       0    6    6    1
  7      1     1       0    7    3    6
         2     2       5    0    3    4
         3     9       3    0    2    1
  8      1     1       8    0    2    4
         2     2       0    7    2    4
         3     7       1    0    1    3
  9      1     3       5    0    5    4
         2     3       3    0    7    6
         3     7       3    0    2    2
 10      1     8       9    0    8    8
         2    10       8    0    8    7
         3    10       0    1    8    5
 11      1     3       4    0    7    7
         2     7       2    0    7    6
         3     8       1    0    5    5
 12      1     2       0    7    6    8
         2     8       0    6    4    8
         3     9       0    6    4    7
 13      1     2       4    0    4    7
         2     5       0    2    4    6
         3     5       2    0    4    7
 14      1     2       0    4    3   10
         2     5       7    0    3    7
         3     6       0    4    3    7
 15      1     1       0    1    7    8
         2     2       7    0    7    6
         3     5       0    1    6    4
 16      1     4       0    5    4    9
         2     4       0    4    7    9
         3     5       6    0    4    9
 17      1     5       0    5    9    8
         2     7       3    0    7    5
         3     8       0    4    6    5
 18      1     0       0    0    0    0
************************************************************************
RESOURCEAVAILABILITIES:
  R 1  R 2  N 1  N 2
   25   27   95  105
************************************************************************
